decision_x1=[0,7];
decision_x2=[0,7];
decision_x3=[0,7];
decision_x4=[0,7];
decision_x5=[0,7];
decision_x6=[0,7];
decision_x7=[0,7];
decision_x8=[0,7];
decision_x9=[0,7];
decision_x10=[0,7];
decision_x11=[0,7];
decision_x12=[0,7];
decision_x13=[0,7];
decision_x14=[0,7];
decision_x15=[0,7];
decision_x16=[0,7];
decision_x17=[0,7];
decision_x18=[0,7];
random_y1=[0,7];
random_y2=[0,7];
random_y3=[0,7];
random_y4=[0,7];
random_y5=[0,7];
random_y6=[0,7];
random_y7=[0,7];
random_y8=[0,7];
constraint_x2_x1=[
0,0,9.6|
0,1,4.7|
0,2,9.9|
0,3,8.8|
0,4,6.3|
0,5,5.1|
0,6,0.53|
0,7,7|
1,0,7.4|
1,1,7|
1,2,4.9|
1,3,0.3|
1,4,3|
1,5,8.9|
1,6,9.9|
1,7,0.47|
2,0,5.1|
2,1,2.5|
2,2,7.6|
2,3,8.8|
2,4,0.33|
2,5,8.1|
2,6,0.65|
2,7,3.6|
3,0,9.6|
3,1,1.3|
3,2,7.5|
3,3,9.1|
3,4,7.2|
3,5,8.7|
3,6,8.8|
3,7,3.9|
4,0,7.6|
4,1,0.014|
4,2,2.9|
4,3,7.9|
4,4,5.7|
4,5,6.3|
4,6,2.3|
4,7,0.48|
5,0,6.8|
5,1,7|
5,2,9|
5,3,9.3|
5,4,2|
5,5,2.3|
5,6,8.8|
5,7,0.65|
6,0,4.4|
6,1,2.1|
6,2,1.3|
6,3,7|
6,4,0.63|
6,5,1.2|
6,6,8.4|
6,7,3.4|
7,0,1.9|
7,1,7.1|
7,2,4.2|
7,3,0.38|
7,4,5.2|
7,5,4.2|
7,6,1.1|
7,7,0.05|
];
constraint_x3_x2=[
0,0,7.9|
0,1,2.3|
0,2,4.3|
0,3,9.4|
0,4,5.2|
0,5,5.8|
0,6,5.8|
0,7,3.4|
1,0,5.1|
1,1,5.7|
1,2,8.5|
1,3,4|
1,4,0.23|
1,5,5.6|
1,6,0.72|
1,7,7.3|
2,0,6.7|
2,1,6.1|
2,2,4.2|
2,3,6.5|
2,4,6.7|
2,5,2.9|
2,6,5.2|
2,7,8.6|
3,0,9.6|
3,1,1.9|
3,2,0.71|
3,3,3.6|
3,4,9.3|
3,5,3.8|
3,6,5.8|
3,7,1.3|
4,0,2.2|
4,1,7.1|
4,2,5.6|
4,3,7.3|
4,4,8.7|
4,5,1.7|
4,6,2.2|
4,7,5.2|
5,0,6.9|
5,1,8.1|
5,2,0.32|
5,3,8.3|
5,4,4.3|
5,5,6.4|
5,6,9.6|
5,7,6.7|
6,0,6|
6,1,0.58|
6,2,9.1|
6,3,7|
6,4,0.49|
6,5,0.96|
6,6,2.3|
6,7,2.8|
7,0,4.9|
7,1,3.4|
7,2,2.8|
7,3,2.5|
7,4,6.4|
7,5,0.51|
7,6,0.029|
7,7,4.6|
];
constraint_x4_x3=[
0,0,3.3|
0,1,0.47|
0,2,5.2|
0,3,4.1|
0,4,1.9|
0,5,1|
0,6,6.7|
0,7,5.6|
1,0,5.5|
1,1,2|
1,2,7.3|
1,3,2|
1,4,4.1|
1,5,0.063|
1,6,3.5|
1,7,3.8|
2,0,2.7|
2,1,7.7|
2,2,7|
2,3,5.5|
2,4,3.9|
2,5,4|
2,6,1.5|
2,7,2.8|
3,0,8|
3,1,9.3|
3,2,9.7|
3,3,9.3|
3,4,4.6|
3,5,8.5|
3,6,3|
3,7,3.4|
4,0,3.4|
4,1,8.1|
4,2,0.69|
4,3,5.3|
4,4,6.8|
4,5,9.7|
4,6,7.6|
4,7,0.16|
5,0,4.5|
5,1,4.4|
5,2,3.6|
5,3,5.8|
5,4,0.19|
5,5,3.2|
5,6,5.4|
5,7,1.7|
6,0,4.7|
6,1,6.7|
6,2,8.8|
6,3,2.4|
6,4,3.9|
6,5,8.6|
6,6,9.8|
6,7,0.49|
7,0,8.5|
7,1,8.3|
7,2,6|
7,3,5.7|
7,4,4.1|
7,5,6.6|
7,6,8.2|
7,7,2.9|
];
constraint_x5_x1=[
0,0,7.6|
0,1,7.1|
0,2,7.9|
0,3,5.3|
0,4,3.2|
0,5,6.9|
0,6,9.4|
0,7,7.7|
1,0,0.63|
1,1,8.6|
1,2,3.5|
1,3,9.4|
1,4,6.6|
1,5,8.5|
1,6,5.4|
1,7,6.8|
2,0,5.2|
2,1,2.6|
2,2,4.7|
2,3,1.9|
2,4,3.5|
2,5,2.6|
2,6,6.8|
2,7,6.3|
3,0,2|
3,1,1.4|
3,2,0.16|
3,3,4|
3,4,8|
3,5,8.3|
3,6,5.9|
3,7,8.4|
4,0,3|
4,1,1.5|
4,2,8.2|
4,3,7.8|
4,4,9|
4,5,0.08|
4,6,1|
4,7,0.73|
5,0,7.4|
5,1,6.3|
5,2,0.16|
5,3,0.53|
5,4,7.3|
5,5,4|
5,6,5.9|
5,7,3.1|
6,0,0.48|
6,1,7.8|
6,2,6|
6,3,2.4|
6,4,7.1|
6,5,1|
6,6,6|
6,7,9.9|
7,0,8.6|
7,1,5.7|
7,2,7.9|
7,3,8.6|
7,4,9.8|
7,5,9.9|
7,6,1.7|
7,7,1.7|
];
constraint_x6_x2=[
0,0,7|
0,1,0.94|
0,2,6.4|
0,3,4.2|
0,4,7.3|
0,5,8.9|
0,6,0.68|
0,7,7|
1,0,2.9|
1,1,6.7|
1,2,2|
1,3,2.9|
1,4,8.2|
1,5,8.9|
1,6,9.1|
1,7,4.6|
2,0,6.9|
2,1,7.7|
2,2,0.94|
2,3,6.7|
2,4,9.5|
2,5,7.8|
2,6,4.9|
2,7,9.2|
3,0,4|
3,1,0.69|
3,2,1.5|
3,3,9.3|
3,4,0.45|
3,5,3.3|
3,6,2.1|
3,7,6.6|
4,0,1.1|
4,1,0.81|
4,2,3.1|
4,3,9.3|
4,4,9.9|
4,5,6|
4,6,5.7|
4,7,5.6|
5,0,2.9|
5,1,7.3|
5,2,1.2|
5,3,3|
5,4,8.8|
5,5,4.5|
5,6,0.82|
5,7,3.7|
6,0,9.7|
6,1,3.5|
6,2,7.6|
6,3,6.2|
6,4,4.8|
6,5,1.5|
6,6,2|
6,7,6.2|
7,0,1.5|
7,1,1.4|
7,2,0.73|
7,3,2.7|
7,4,4.9|
7,5,5.3|
7,6,9.6|
7,7,2.9|
];
constraint_x6_x5=[
0,0,6.4|
0,1,8|
0,2,2.1|
0,3,6.2|
0,4,8.9|
0,5,9.6|
0,6,5.3|
0,7,1.4|
1,0,9.2|
1,1,5.4|
1,2,6.8|
1,3,7.9|
1,4,4.8|
1,5,9.5|
1,6,2.6|
1,7,6.2|
2,0,7.1|
2,1,3.7|
2,2,9.3|
2,3,6.9|
2,4,1.5|
2,5,5.4|
2,6,2.2|
2,7,9.3|
3,0,9.5|
3,1,8.1|
3,2,7.4|
3,3,7|
3,4,7.6|
3,5,0.077|
3,6,10|
3,7,6.9|
4,0,1.9|
4,1,1.2|
4,2,1.7|
4,3,6.1|
4,4,1.8|
4,5,1.1|
4,6,5.5|
4,7,9.9|
5,0,7.7|
5,1,8.5|
5,2,6.2|
5,3,8.4|
5,4,4.9|
5,5,9.8|
5,6,0.048|
5,7,3.8|
6,0,5.8|
6,1,6.3|
6,2,3.1|
6,3,9.4|
6,4,0.62|
6,5,4|
6,6,0.68|
6,7,7|
7,0,3.1|
7,1,7.1|
7,2,6.1|
7,3,8.3|
7,4,9.3|
7,5,0.23|
7,6,8.3|
7,7,4.4|
];
constraint_x7_x3=[
0,0,2.3|
0,1,5.2|
0,2,9.9|
0,3,2.9|
0,4,4.7|
0,5,1.8|
0,6,9.3|
0,7,8.8|
1,0,4.9|
1,1,7.7|
1,2,3.1|
1,3,7.2|
1,4,2.9|
1,5,6.4|
1,6,5|
1,7,9.4|
2,0,9.9|
2,1,5.7|
2,2,0.45|
2,3,1.4|
2,4,6.9|
2,5,1.2|
2,6,2.5|
2,7,6.5|
3,0,1.5|
3,1,3.4|
3,2,4.7|
3,3,8.8|
3,4,3.9|
3,5,7.9|
3,6,6.2|
3,7,0.93|
4,0,1.4|
4,1,2.9|
4,2,2.8|
4,3,9.6|
4,4,4.8|
4,5,1.8|
4,6,1.3|
4,7,8.4|
5,0,7.7|
5,1,9.3|
5,2,5.2|
5,3,4.1|
5,4,7.5|
5,5,7.3|
5,6,3.9|
5,7,8.9|
6,0,7.7|
6,1,5.6|
6,2,4.5|
6,3,8.9|
6,4,7.6|
6,5,7.5|
6,6,1.7|
6,7,0.095|
7,0,4|
7,1,8.8|
7,2,0.58|
7,3,5.8|
7,4,7.2|
7,5,9.8|
7,6,3.1|
7,7,6.9|
];
constraint_x7_x6=[
0,0,8.2|
0,1,2.6|
0,2,4.4|
0,3,4.7|
0,4,0.68|
0,5,9.1|
0,6,1.9|
0,7,9.7|
1,0,9|
1,1,0.93|
1,2,7.5|
1,3,7.8|
1,4,2.3|
1,5,6.6|
1,6,5.7|
1,7,4.6|
2,0,0.37|
2,1,5.4|
2,2,6.3|
2,3,1.2|
2,4,5.5|
2,5,3.7|
2,6,5.2|
2,7,4.1|
3,0,6.1|
3,1,0.73|
3,2,4.6|
3,3,5.9|
3,4,2.4|
3,5,2.7|
3,6,3.2|
3,7,7.2|
4,0,5.4|
4,1,5.8|
4,2,9.4|
4,3,0.2|
4,4,4.2|
4,5,6.8|
4,6,9|
4,7,3.2|
5,0,2.5|
5,1,8.2|
5,2,0.21|
5,3,9.8|
5,4,7.7|
5,5,6.8|
5,6,2.1|
5,7,5.8|
6,0,9.9|
6,1,0.055|
6,2,3.6|
6,3,8.5|
6,4,0.041|
6,5,1.1|
6,6,3|
6,7,9.4|
7,0,3|
7,1,3.2|
7,2,0.67|
7,3,4.1|
7,4,3.1|
7,5,2.1|
7,6,1.9|
7,7,7.8|
];
constraint_x8_x4=[
0,0,1.1|
0,1,9.9|
0,2,8.9|
0,3,9.8|
0,4,8.5|
0,5,3.4|
0,6,0.45|
0,7,0.37|
1,0,1.6|
1,1,8|
1,2,2.9|
1,3,2.4|
1,4,7.3|
1,5,2.6|
1,6,4.1|
1,7,5.5|
2,0,5.9|
2,1,7.6|
2,2,8.8|
2,3,8.5|
2,4,4.1|
2,5,1.4|
2,6,5.9|
2,7,3.6|
3,0,5.2|
3,1,5.7|
3,2,8.8|
3,3,9.7|
3,4,8.7|
3,5,5|
3,6,1.3|
3,7,6.1|
4,0,7.9|
4,1,3.7|
4,2,9.5|
4,3,4|
4,4,9.1|
4,5,0.71|
4,6,9.2|
4,7,7.5|
5,0,7.4|
5,1,1.7|
5,2,2.5|
5,3,2.1|
5,4,8.7|
5,5,3.6|
5,6,4.3|
5,7,3.8|
6,0,4.2|
6,1,8.9|
6,2,2.7|
6,3,9.1|
6,4,1.5|
6,5,6.9|
6,6,7.9|
6,7,2.6|
7,0,6.5|
7,1,2.1|
7,2,1.2|
7,3,1.9|
7,4,1.1|
7,5,5.2|
7,6,5.8|
7,7,3.4|
];
constraint_x8_x7=[
0,0,5.1|
0,1,5.7|
0,2,4.3|
0,3,9.3|
0,4,0.5|
0,5,9.7|
0,6,9.1|
0,7,6.7|
1,0,3.8|
1,1,7.1|
1,2,9.9|
1,3,10|
1,4,3.6|
1,5,5.6|
1,6,1.2|
1,7,0.77|
2,0,6.7|
2,1,8.2|
2,2,5.9|
2,3,5.1|
2,4,7.5|
2,5,4.7|
2,6,9.1|
2,7,5.2|
3,0,5.7|
3,1,2.8|
3,2,4|
3,3,9.9|
3,4,7.5|
3,5,2.5|
3,6,3.6|
3,7,0.72|
4,0,4.6|
4,1,5.4|
4,2,2.7|
4,3,9.5|
4,4,7.3|
4,5,0.79|
4,6,1.2|
4,7,3.2|
5,0,8.8|
5,1,2.8|
5,2,4.4|
5,3,1.2|
5,4,8.1|
5,5,1.9|
5,6,5.5|
5,7,3.2|
6,0,3|
6,1,8.8|
6,2,3.1|
6,3,6.1|
6,4,4.7|
6,5,8.8|
6,6,3.2|
6,7,4.3|
7,0,3.9|
7,1,8.7|
7,2,6.6|
7,3,6.6|
7,4,2.5|
7,5,0.64|
7,6,6.4|
7,7,4.1|
];
constraint_x9_x5=[
0,0,0.68|
0,1,5.6|
0,2,7|
0,3,1.8|
0,4,4.1|
0,5,5.8|
0,6,6.4|
0,7,2.3|
1,0,9|
1,1,5|
1,2,5.1|
1,3,9.8|
1,4,8.5|
1,5,4.6|
1,6,4.8|
1,7,5.9|
2,0,2.3|
2,1,5.5|
2,2,1.5|
2,3,3.6|
2,4,6.4|
2,5,0.95|
2,6,9.3|
2,7,1.7|
3,0,4.1|
3,1,1.1|
3,2,0.76|
3,3,1.4|
3,4,9.2|
3,5,3.2|
3,6,2.7|
3,7,1.4|
4,0,0.76|
4,1,10|
4,2,8.9|
4,3,0.89|
4,4,9.1|
4,5,7.4|
4,6,2.7|
4,7,1.3|
5,0,5.3|
5,1,7.5|
5,2,9.6|
5,3,8.4|
5,4,5.8|
5,5,8.6|
5,6,5.6|
5,7,7.4|
6,0,2.1|
6,1,9.2|
6,2,5.3|
6,3,2.9|
6,4,8.6|
6,5,6.8|
6,6,4|
6,7,0.92|
7,0,2.9|
7,1,9|
7,2,7.7|
7,3,1.7|
7,4,2.2|
7,5,9.8|
7,6,3.3|
7,7,7.4|
];
constraint_x10_x6=[
0,0,7.9|
0,1,5.6|
0,2,7.6|
0,3,9.1|
0,4,6.2|
0,5,8.1|
0,6,7.6|
0,7,7.8|
1,0,0.5|
1,1,3.8|
1,2,3|
1,3,1.1|
1,4,2.7|
1,5,4.7|
1,6,4.9|
1,7,9.4|
2,0,3.8|
2,1,6.9|
2,2,5.6|
2,3,9.3|
2,4,7.8|
2,5,6.6|
2,6,9.7|
2,7,8.3|
3,0,4.1|
3,1,0.59|
3,2,5.4|
3,3,9.3|
3,4,5.2|
3,5,9.4|
3,6,1.6|
3,7,4.2|
4,0,3|
4,1,5|
4,2,2|
4,3,8.9|
4,4,6.7|
4,5,9.2|
4,6,3.2|
4,7,0.36|
5,0,8.4|
5,1,6|
5,2,2|
5,3,1.8|
5,4,4.4|
5,5,9.7|
5,6,6.9|
5,7,7.6|
6,0,4.9|
6,1,0.81|
6,2,3.4|
6,3,7.5|
6,4,8.1|
6,5,5.4|
6,6,6.8|
6,7,0.046|
7,0,6.3|
7,1,1.3|
7,2,4.1|
7,3,0.7|
7,4,7.8|
7,5,5.5|
7,6,3.5|
7,7,1.9|
];
constraint_x10_x9=[
0,0,9.8|
0,1,1.1|
0,2,3.8|
0,3,7.5|
0,4,3.1|
0,5,7.9|
0,6,6.6|
0,7,2|
1,0,2.6|
1,1,8.4|
1,2,3.1|
1,3,5.1|
1,4,1.6|
1,5,8.6|
1,6,2.1|
1,7,7.5|
2,0,8.2|
2,1,6.3|
2,2,0.71|
2,3,8.7|
2,4,6.2|
2,5,0.43|
2,6,1.6|
2,7,3|
3,0,0.33|
3,1,6.6|
3,2,5.9|
3,3,8.8|
3,4,0.26|
3,5,4.8|
3,6,8.3|
3,7,6.5|
4,0,6|
4,1,6.1|
4,2,4|
4,3,5.3|
4,4,0.72|
4,5,2.7|
4,6,8.4|
4,7,9|
5,0,2.5|
5,1,0.25|
5,2,2|
5,3,1.7|
5,4,7|
5,5,5.1|
5,6,4.7|
5,7,6.5|
6,0,6.7|
6,1,9.1|
6,2,2.7|
6,3,7.6|
6,4,1.1|
6,5,7.7|
6,6,1.8|
6,7,7.9|
7,0,8.3|
7,1,2.3|
7,2,3.8|
7,3,4.3|
7,4,3.9|
7,5,7.1|
7,6,8.9|
7,7,9.1|
];
constraint_x11_x7=[
0,0,5.5|
0,1,1.1|
0,2,9.3|
0,3,1.7|
0,4,1.8|
0,5,1.4|
0,6,0.19|
0,7,4|
1,0,9.7|
1,1,4.4|
1,2,5.7|
1,3,6.4|
1,4,7.3|
1,5,2.1|
1,6,2.6|
1,7,1.2|
2,0,8.2|
2,1,0.47|
2,2,4.4|
2,3,8.2|
2,4,4.3|
2,5,9.5|
2,6,3.6|
2,7,0.53|
3,0,0.36|
3,1,6.1|
3,2,2.4|
3,3,9.2|
3,4,0.13|
3,5,1.4|
3,6,2.5|
3,7,4.3|
4,0,0.38|
4,1,8.8|
4,2,1.2|
4,3,1.8|
4,4,7|
4,5,8.8|
4,6,8|
4,7,3.6|
5,0,5.9|
5,1,0.36|
5,2,4.2|
5,3,3.9|
5,4,5.4|
5,5,3.2|
5,6,9.7|
5,7,9.4|
6,0,0.32|
6,1,9|
6,2,0.67|
6,3,5.2|
6,4,5.6|
6,5,0.31|
6,6,8.6|
6,7,1.5|
7,0,7.3|
7,1,3.3|
7,2,2.3|
7,3,7|
7,4,9.8|
7,5,7.4|
7,6,5.2|
7,7,8.1|
];
constraint_x11_x10=[
0,0,6.5|
0,1,0.19|
0,2,3.8|
0,3,4.9|
0,4,3.4|
0,5,9.2|
0,6,6.3|
0,7,0.37|
1,0,0.3|
1,1,4.6|
1,2,1|
1,3,3.3|
1,4,3.8|
1,5,3.9|
1,6,6.3|
1,7,0.62|
2,0,6.8|
2,1,2.5|
2,2,3.7|
2,3,9.7|
2,4,8.2|
2,5,6.6|
2,6,6.4|
2,7,7|
3,0,9.1|
3,1,4.2|
3,2,1.9|
3,3,9.8|
3,4,1.3|
3,5,1.9|
3,6,8.6|
3,7,4.2|
4,0,9.1|
4,1,8.1|
4,2,7.7|
4,3,4.4|
4,4,5.2|
4,5,0.0082|
4,6,6.6|
4,7,4.9|
5,0,6.8|
5,1,8.2|
5,2,8.8|
5,3,7.8|
5,4,6.9|
5,5,6.8|
5,6,3.7|
5,7,9.3|
6,0,9.2|
6,1,4.3|
6,2,4.4|
6,3,5|
6,4,5.4|
6,5,5.7|
6,6,6|
6,7,0.92|
7,0,6.7|
7,1,1.2|
7,2,0.96|
7,3,7.4|
7,4,2.9|
7,5,2.6|
7,6,4.2|
7,7,0.15|
];
constraint_x12_x8=[
0,0,3.6|
0,1,8.5|
0,2,4.5|
0,3,9.8|
0,4,2.5|
0,5,3.1|
0,6,0.23|
0,7,5.9|
1,0,0.7|
1,1,0.23|
1,2,4|
1,3,9.2|
1,4,0.048|
1,5,9.1|
1,6,2.4|
1,7,6.8|
2,0,5.1|
2,1,7.3|
2,2,1.5|
2,3,3.2|
2,4,8.1|
2,5,3.7|
2,6,7.7|
2,7,1.5|
3,0,7.9|
3,1,9.6|
3,2,5.2|
3,3,0.35|
3,4,8.2|
3,5,5.6|
3,6,4.7|
3,7,2|
4,0,7.6|
4,1,9.3|
4,2,9.3|
4,3,0.28|
4,4,3.4|
4,5,3.9|
4,6,7.5|
4,7,1.4|
5,0,5.8|
5,1,5.9|
5,2,4|
5,3,4.1|
5,4,2.5|
5,5,1.4|
5,6,9.4|
5,7,8.6|
6,0,3.5|
6,1,1|
6,2,1.7|
6,3,0.14|
6,4,6.5|
6,5,1.1|
6,6,7.5|
6,7,1.2|
7,0,2.8|
7,1,8.2|
7,2,0.26|
7,3,9.1|
7,4,4.4|
7,5,0.48|
7,6,4.5|
7,7,7.9|
];
constraint_x12_x11=[
0,0,7.2|
0,1,0.17|
0,2,4.1|
0,3,7.1|
0,4,5.7|
0,5,9.6|
0,6,6.9|
0,7,5.2|
1,0,9.7|
1,1,1.3|
1,2,1.1|
1,3,6.3|
1,4,7.6|
1,5,6.2|
1,6,3.1|
1,7,7.3|
2,0,4.3|
2,1,1.7|
2,2,1.6|
2,3,6.1|
2,4,4.8|
2,5,5.2|
2,6,2.3|
2,7,4.1|
3,0,5.9|
3,1,9.3|
3,2,9.1|
3,3,9|
3,4,3.5|
3,5,8.5|
3,6,7.3|
3,7,7.9|
4,0,4.5|
4,1,4.3|
4,2,4.7|
4,3,1.6|
4,4,3.6|
4,5,4.4|
4,6,6.7|
4,7,5|
5,0,5.4|
5,1,2.8|
5,2,9|
5,3,5.6|
5,4,7.2|
5,5,9.2|
5,6,10|
5,7,0.38|
6,0,0.8|
6,1,6.3|
6,2,8.8|
6,3,6.2|
6,4,1.6|
6,5,6.3|
6,6,2.9|
6,7,4.8|
7,0,2.1|
7,1,4.1|
7,2,9.3|
7,3,7.7|
7,4,8.2|
7,5,10|
7,6,9.9|
7,7,2.6|
];
constraint_x13_x9=[
0,0,6.8|
0,1,2.7|
0,2,9.7|
0,3,5.2|
0,4,7.9|
0,5,2.3|
0,6,5.5|
0,7,2.5|
1,0,5.2|
1,1,8.6|
1,2,4.8|
1,3,7.7|
1,4,9.1|
1,5,9|
1,6,4.9|
1,7,3.6|
2,0,6.5|
2,1,5.5|
2,2,3.5|
2,3,1.7|
2,4,4.6|
2,5,0.71|
2,6,1.5|
2,7,9.8|
3,0,5|
3,1,5.6|
3,2,3.1|
3,3,0.14|
3,4,8|
3,5,0.14|
3,6,6.4|
3,7,2.7|
4,0,9.1|
4,1,4.9|
4,2,5.8|
4,3,3.5|
4,4,9.3|
4,5,9.6|
4,6,8.8|
4,7,9.4|
5,0,2|
5,1,8.8|
5,2,0.62|
5,3,4|
5,4,9.7|
5,5,7.5|
5,6,7.8|
5,7,6.7|
6,0,0.72|
6,1,8.6|
6,2,6.6|
6,3,9.2|
6,4,7.8|
6,5,0.63|
6,6,1.6|
6,7,5.3|
7,0,8.4|
7,1,7.8|
7,2,9.7|
7,3,9.7|
7,4,6.6|
7,5,5.2|
7,6,7.4|
7,7,9.7|
];
constraint_x14_x10=[
0,0,0.95|
0,1,6.5|
0,2,3.9|
0,3,9.9|
0,4,3.7|
0,5,4|
0,6,5.8|
0,7,8.9|
1,0,1.2|
1,1,0.62|
1,2,1.3|
1,3,7.4|
1,4,6.6|
1,5,3.5|
1,6,3.3|
1,7,2.4|
2,0,9.5|
2,1,7.5|
2,2,5.6|
2,3,5.3|
2,4,8.3|
2,5,6.9|
2,6,9.2|
2,7,8.7|
3,0,0.4|
3,1,6.2|
3,2,3.6|
3,3,9.5|
3,4,2.3|
3,5,4.2|
3,6,2.9|
3,7,7.8|
4,0,0.33|
4,1,9.1|
4,2,9.6|
4,3,1.8|
4,4,8.5|
4,5,5.8|
4,6,0.5|
4,7,9|
5,0,5|
5,1,1.8|
5,2,2.6|
5,3,7.1|
5,4,1.4|
5,5,3.5|
5,6,9.8|
5,7,6.1|
6,0,9.6|
6,1,8.6|
6,2,3.2|
6,3,0.28|
6,4,5.7|
6,5,8.4|
6,6,9.9|
6,7,4.8|
7,0,1.8|
7,1,7.9|
7,2,7.5|
7,3,6.5|
7,4,1.9|
7,5,0.76|
7,6,4.5|
7,7,3.7|
];
constraint_x14_x13=[
0,0,1.7|
0,1,9.1|
0,2,8.6|
0,3,5|
0,4,8.7|
0,5,10|
0,6,4|
0,7,6.3|
1,0,4.4|
1,1,0.67|
1,2,6.4|
1,3,6.5|
1,4,3.9|
1,5,4.5|
1,6,9.9|
1,7,9.4|
2,0,7.3|
2,1,7.3|
2,2,2.1|
2,3,2.7|
2,4,8.1|
2,5,7|
2,6,7.2|
2,7,1.8|
3,0,2.6|
3,1,6.3|
3,2,0.5|
3,3,7.4|
3,4,3.4|
3,5,8|
3,6,5.8|
3,7,1.3|
4,0,9.9|
4,1,1.2|
4,2,4.7|
4,3,3.8|
4,4,7.4|
4,5,6.7|
4,6,6.6|
4,7,3.7|
5,0,6.8|
5,1,8.9|
5,2,2|
5,3,3.8|
5,4,0.77|
5,5,5.6|
5,6,7.7|
5,7,2.6|
6,0,2.3|
6,1,4.6|
6,2,0.6|
6,3,5.6|
6,4,5.5|
6,5,9.9|
6,6,5.7|
6,7,1.2|
7,0,0.77|
7,1,1.9|
7,2,4|
7,3,7.4|
7,4,5.4|
7,5,1.1|
7,6,0.61|
7,7,1.9|
];
constraint_x15_x11=[
0,0,6.8|
0,1,7.8|
0,2,1.5|
0,3,6.6|
0,4,4.1|
0,5,0.77|
0,6,5.4|
0,7,2.3|
1,0,9.6|
1,1,9.6|
1,2,3.1|
1,3,1.4|
1,4,7.7|
1,5,4.2|
1,6,6.3|
1,7,9.1|
2,0,7.1|
2,1,5.2|
2,2,2.1|
2,3,5.3|
2,4,5.2|
2,5,3.9|
2,6,8.4|
2,7,4.9|
3,0,8.9|
3,1,2.9|
3,2,9.1|
3,3,0.64|
3,4,5.2|
3,5,6.1|
3,6,2.8|
3,7,6|
4,0,6.2|
4,1,5.6|
4,2,9.8|
4,3,6.7|
4,4,5.3|
4,5,6.8|
4,6,4.5|
4,7,8.5|
5,0,5.2|
5,1,5.4|
5,2,4.4|
5,3,10|
5,4,5.2|
5,5,1.7|
5,6,2.2|
5,7,3.1|
6,0,4.7|
6,1,4.4|
6,2,1.7|
6,3,2.6|
6,4,6.8|
6,5,8.8|
6,6,8.4|
6,7,5.8|
7,0,8.5|
7,1,8.9|
7,2,4.5|
7,3,0.48|
7,4,3.1|
7,5,8.1|
7,6,0.6|
7,7,3.5|
];
constraint_x15_x14=[
0,0,2.5|
0,1,0.31|
0,2,1.9|
0,3,3.7|
0,4,6.3|
0,5,7.1|
0,6,3.5|
0,7,0.99|
1,0,8.6|
1,1,4.9|
1,2,6.6|
1,3,5.7|
1,4,7.7|
1,5,1.1|
1,6,9.4|
1,7,6|
2,0,5.2|
2,1,9.8|
2,2,9.6|
2,3,4.8|
2,4,6.5|
2,5,2.2|
2,6,4.5|
2,7,3.5|
3,0,3.5|
3,1,2.6|
3,2,1.5|
3,3,0.51|
3,4,2.5|
3,5,0.19|
3,6,9.5|
3,7,3.1|
4,0,4.3|
4,1,5.9|
4,2,9.2|
4,3,8.8|
4,4,7.9|
4,5,9.9|
4,6,9.8|
4,7,0.22|
5,0,8.1|
5,1,5.6|
5,2,8.4|
5,3,9.3|
5,4,9.1|
5,5,9.3|
5,6,2|
5,7,6|
6,0,9.6|
6,1,2.3|
6,2,4.4|
6,3,9.4|
6,4,2.4|
6,5,3.9|
6,6,5.6|
6,7,1.2|
7,0,3|
7,1,2|
7,2,5|
7,3,4.9|
7,4,5.9|
7,5,8|
7,6,1|
7,7,5.7|
];
constraint_x16_x12=[
0,0,5.6|
0,1,3.5|
0,2,9.3|
0,3,0.4|
0,4,5.1|
0,5,1.7|
0,6,8.3|
0,7,1.4|
1,0,9.3|
1,1,0.58|
1,2,7.5|
1,3,6.6|
1,4,8.1|
1,5,5.5|
1,6,9.3|
1,7,5.8|
2,0,5.7|
2,1,5.9|
2,2,7.5|
2,3,0.98|
2,4,9.1|
2,5,5.5|
2,6,6.5|
2,7,4.8|
3,0,9.3|
3,1,6.6|
3,2,1.1|
3,3,0.31|
3,4,7.5|
3,5,0.23|
3,6,5.2|
3,7,5.4|
4,0,0.92|
4,1,7|
4,2,7|
4,3,1.5|
4,4,2|
4,5,4.8|
4,6,6.2|
4,7,5.7|
5,0,0.47|
5,1,7.1|
5,2,8|
5,3,4.4|
5,4,5.2|
5,5,9|
5,6,3.3|
5,7,6.8|
6,0,7.7|
6,1,8.8|
6,2,9.7|
6,3,3.6|
6,4,9.2|
6,5,0.4|
6,6,5.3|
6,7,6.8|
7,0,7.3|
7,1,1|
7,2,9.2|
7,3,4.8|
7,4,7.2|
7,5,1.9|
7,6,0.092|
7,7,9.1|
];
constraint_x16_x15=[
0,0,6.8|
0,1,0.69|
0,2,1.2|
0,3,7.3|
0,4,9|
0,5,5.7|
0,6,6.9|
0,7,3.6|
1,0,4|
1,1,6.8|
1,2,5|
1,3,7|
1,4,3.8|
1,5,7.8|
1,6,4.2|
1,7,9.1|
2,0,0.72|
2,1,7.5|
2,2,0.25|
2,3,0.16|
2,4,6.7|
2,5,4.5|
2,6,2.7|
2,7,7.8|
3,0,2.1|
3,1,9.2|
3,2,0.18|
3,3,2.2|
3,4,2.3|
3,5,2.1|
3,6,1.7|
3,7,6.7|
4,0,6.5|
4,1,4.5|
4,2,8.4|
4,3,8.3|
4,4,5.3|
4,5,8.3|
4,6,2.7|
4,7,7.2|
5,0,7.6|
5,1,5.3|
5,2,8.7|
5,3,0.88|
5,4,7.4|
5,5,7.6|
5,6,6.8|
5,7,0.3|
6,0,0.69|
6,1,0.79|
6,2,1.9|
6,3,6.7|
6,4,9.4|
6,5,0.079|
6,6,9.3|
6,7,2.3|
7,0,8.1|
7,1,8.9|
7,2,9.8|
7,3,8|
7,4,8.4|
7,5,1.3|
7,6,3.9|
7,7,1.5|
];
constraint_x17_x13=[
0,0,0.028|
0,1,8.2|
0,2,3.7|
0,3,8.6|
0,4,4.2|
0,5,0.024|
0,6,9.1|
0,7,7.2|
1,0,9.4|
1,1,2.4|
1,2,3|
1,3,0.8|
1,4,9.1|
1,5,0.55|
1,6,6.1|
1,7,5.1|
2,0,8.9|
2,1,9.8|
2,2,8.3|
2,3,3.1|
2,4,8.9|
2,5,5.8|
2,6,2.1|
2,7,7.9|
3,0,3.3|
3,1,1.1|
3,2,0.82|
3,3,6.9|
3,4,8.8|
3,5,9.1|
3,6,7.4|
3,7,1.1|
4,0,5.3|
4,1,9.8|
4,2,1.6|
4,3,9.9|
4,4,6.6|
4,5,5.1|
4,6,8.1|
4,7,9.2|
5,0,10|
5,1,9.6|
5,2,2.7|
5,3,5.4|
5,4,4.1|
5,5,4.1|
5,6,2.9|
5,7,4.8|
6,0,5.8|
6,1,0.76|
6,2,5.1|
6,3,9.8|
6,4,0.26|
6,5,1.1|
6,6,6.6|
6,7,5|
7,0,8.2|
7,1,2.3|
7,2,1.8|
7,3,9.6|
7,4,0.56|
7,5,7.1|
7,6,1|
7,7,8.4|
];
constraint_x18_x14=[
0,0,0.44|
0,1,4.8|
0,2,5.2|
0,3,6.3|
0,4,3.6|
0,5,6.8|
0,6,0.24|
0,7,0.75|
1,0,1.8|
1,1,9.5|
1,2,4|
1,3,8.6|
1,4,2.2|
1,5,7.1|
1,6,6.4|
1,7,1.8|
2,0,4.3|
2,1,0.44|
2,2,7.6|
2,3,7.8|
2,4,2.6|
2,5,4.2|
2,6,5.9|
2,7,7|
3,0,8.7|
3,1,6.5|
3,2,0.41|
3,3,5.4|
3,4,7.9|
3,5,4.1|
3,6,5|
3,7,8.5|
4,0,4.7|
4,1,5.3|
4,2,7.5|
4,3,7.8|
4,4,5|
4,5,4.9|
4,6,8.5|
4,7,0.48|
5,0,7.9|
5,1,3|
5,2,8.8|
5,3,1.8|
5,4,7.9|
5,5,4.2|
5,6,2.6|
5,7,8.7|
6,0,9.5|
6,1,5|
6,2,0.1|
6,3,9.3|
6,4,2.4|
6,5,6.8|
6,6,9.1|
6,7,8.1|
7,0,7.8|
7,1,8.3|
7,2,5.8|
7,3,8.3|
7,4,9.5|
7,5,5.1|
7,6,6|
7,7,5.1|
];
constraint_x1_y1=[
0,0,3.7|
0,1,5.8|
0,2,4.8|
0,3,9.4|
0,4,7.1|
0,5,5.7|
0,6,5.6|
0,7,6|
1,0,9|
1,1,0.96|
1,2,8|
1,3,9.7|
1,4,3.9|
1,5,6.5|
1,6,3.7|
1,7,2.4|
2,0,7.2|
2,1,7.9|
2,2,4.4|
2,3,0.83|
2,4,6.4|
2,5,4.6|
2,6,3.3|
2,7,7.5|
3,0,9.5|
3,1,7.3|
3,2,5.2|
3,3,0.52|
3,4,7.8|
3,5,6|
3,6,4|
3,7,4.9|
4,0,0.64|
4,1,6.3|
4,2,10|
4,3,8.9|
4,4,8.9|
4,5,2.5|
4,6,0.04|
4,7,7.2|
5,0,4.1|
5,1,3.2|
5,2,0.32|
5,3,3|
5,4,8|
5,5,5.1|
5,6,3.8|
5,7,4.2|
6,0,4.6|
6,1,8.1|
6,2,2.5|
6,3,4.9|
6,4,4.7|
6,5,1.6|
6,6,2.3|
6,7,2.3|
7,0,7.4|
7,1,6.4|
7,2,7.7|
7,3,7.4|
7,4,2.7|
7,5,0.86|
7,6,8.8|
7,7,8|
];
constraint_x2_y2=[
0,0,0.067|
0,1,1.2|
0,2,6.2|
0,3,1.9|
0,4,2.9|
0,5,0.29|
0,6,5.3|
0,7,5.6|
1,0,4.9|
1,1,9.8|
1,2,9.9|
1,3,0.8|
1,4,4.4|
1,5,0.58|
1,6,2.4|
1,7,4.1|
2,0,7.4|
2,1,9.7|
2,2,7.1|
2,3,8.5|
2,4,3.5|
2,5,2|
2,6,8.9|
2,7,1.4|
3,0,6.2|
3,1,6.3|
3,2,8.2|
3,3,4.2|
3,4,8.8|
3,5,4.4|
3,6,5.6|
3,7,6|
4,0,7.7|
4,1,9.5|
4,2,1.4|
4,3,2.6|
4,4,9.1|
4,5,8|
4,6,9.2|
4,7,3.4|
5,0,2.4|
5,1,9.8|
5,2,8.1|
5,3,7.4|
5,4,8.9|
5,5,1.6|
5,6,5.1|
5,7,6.6|
6,0,1.6|
6,1,7.1|
6,2,9.2|
6,3,4.9|
6,4,4.4|
6,5,4|
6,6,7.3|
6,7,4.5|
7,0,7|
7,1,0.58|
7,2,4.1|
7,3,4.4|
7,4,7.2|
7,5,9.5|
7,6,4.3|
7,7,3.6|
];
constraint_x3_y3=[
0,0,3|
0,1,1.4|
0,2,9.3|
0,3,6.5|
0,4,6.2|
0,5,3.9|
0,6,5.2|
0,7,2.8|
1,0,3.9|
1,1,7.1|
1,2,1.4|
1,3,3.3|
1,4,8.1|
1,5,8.2|
1,6,0.29|
1,7,7.9|
2,0,3.4|
2,1,8.1|
2,2,1.1|
2,3,8|
2,4,5.5|
2,5,1.3|
2,6,1.5|
2,7,0.67|
3,0,6.8|
3,1,2.8|
3,2,6.9|
3,3,0.26|
3,4,0.69|
3,5,8.1|
3,6,7.3|
3,7,4.1|
4,0,7.1|
4,1,8.6|
4,2,3.6|
4,3,7.7|
4,4,9.7|
4,5,6.6|
4,6,0.39|
4,7,7.9|
5,0,8.7|
5,1,1.7|
5,2,8.6|
5,3,1.8|
5,4,7.9|
5,5,6.1|
5,6,0.32|
5,7,7|
6,0,7.7|
6,1,5.6|
6,2,7.3|
6,3,7.8|
6,4,0.4|
6,5,5.1|
6,6,2.4|
6,7,4.3|
7,0,9.3|
7,1,5.8|
7,2,8.8|
7,3,3.5|
7,4,2.8|
7,5,7|
7,6,4.2|
7,7,7.7|
];
constraint_x4_y4=[
0,0,1.4|
0,1,4.3|
0,2,8|
0,3,6|
0,4,1.8|
0,5,6.7|
0,6,8|
0,7,2.5|
1,0,9.4|
1,1,5|
1,2,5.4|
1,3,0.59|
1,4,4.5|
1,5,3|
1,6,3.2|
1,7,2.2|
2,0,2|
2,1,0.48|
2,2,0.28|
2,3,5.6|
2,4,1.5|
2,5,2.6|
2,6,0.041|
2,7,2.8|
3,0,1.7|
3,1,1.3|
3,2,0.42|
3,3,1.3|
3,4,4.5|
3,5,5.7|
3,6,7.6|
3,7,5.9|
4,0,2.3|
4,1,4.1|
4,2,2.7|
4,3,2.8|
4,4,0.99|
4,5,2.4|
4,6,8.5|
4,7,9.6|
5,0,3.9|
5,1,4.5|
5,2,3.6|
5,3,8.5|
5,4,0.5|
5,5,1.2|
5,6,3.9|
5,7,8.2|
6,0,5.6|
6,1,7.6|
6,2,7.8|
6,3,0.067|
6,4,4.9|
6,5,4.4|
6,6,0.77|
6,7,2.9|
7,0,1.7|
7,1,0.97|
7,2,3.9|
7,3,1.6|
7,4,7.5|
7,5,4|
7,6,4.6|
7,7,5.2|
];
constraint_x5_y5=[
0,0,8.8|
0,1,9.1|
0,2,1.7|
0,3,5.8|
0,4,6|
0,5,2.6|
0,6,6.4|
0,7,2.9|
1,0,1.3|
1,1,7.3|
1,2,2|
1,3,0.43|
1,4,2.2|
1,5,1.4|
1,6,4.8|
1,7,7.3|
2,0,6.6|
2,1,4.4|
2,2,4.7|
2,3,5.5|
2,4,7.9|
2,5,7|
2,6,8.1|
2,7,5.9|
3,0,4|
3,1,8.2|
3,2,9|
3,3,3|
3,4,1.3|
3,5,6.4|
3,6,1|
3,7,0.047|
4,0,4.4|
4,1,8.7|
4,2,7.2|
4,3,3|
4,4,4.4|
4,5,9.4|
4,6,4.6|
4,7,8.5|
5,0,0.88|
5,1,1.2|
5,2,6.5|
5,3,7.1|
5,4,5|
5,5,5.6|
5,6,5.6|
5,7,2.7|
6,0,8.7|
6,1,0.32|
6,2,7.5|
6,3,3.1|
6,4,3.5|
6,5,6.3|
6,6,9|
6,7,4.5|
7,0,8.4|
7,1,3.5|
7,2,3.8|
7,3,0.59|
7,4,4.7|
7,5,9.6|
7,6,1.5|
7,7,0.2|
];
constraint_x6_y6=[
0,0,2.6|
0,1,0.41|
0,2,9.2|
0,3,4.4|
0,4,3.8|
0,5,3.8|
0,6,3.9|
0,7,4.4|
1,0,9.6|
1,1,1.2|
1,2,9.9|
1,3,0.99|
1,4,4.9|
1,5,4.8|
1,6,3.8|
1,7,0.21|
2,0,5.3|
2,1,9.6|
2,2,9.3|
2,3,4.5|
2,4,4|
2,5,0.72|
2,6,3.9|
2,7,0.051|
3,0,2.1|
3,1,6.3|
3,2,4.9|
3,3,3.7|
3,4,1.5|
3,5,2.5|
3,6,3|
3,7,9.7|
4,0,2.4|
4,1,2.2|
4,2,5.3|
4,3,7.3|
4,4,2.7|
4,5,1.7|
4,6,2.1|
4,7,2.4|
5,0,0.79|
5,1,4.7|
5,2,8.5|
5,3,2.4|
5,4,3.1|
5,5,8.2|
5,6,8.9|
5,7,0.62|
6,0,7.3|
6,1,2.5|
6,2,4.7|
6,3,4.8|
6,4,8.8|
6,5,6.9|
6,6,5|
6,7,1.2|
7,0,5.3|
7,1,7|
7,2,2.7|
7,3,0.83|
7,4,4.5|
7,5,3.5|
7,6,8.8|
7,7,9|
];
constraint_x7_y7=[
0,0,5.2|
0,1,3.3|
0,2,3.3|
0,3,9.9|
0,4,6.9|
0,5,3.1|
0,6,4|
0,7,2|
1,0,2.3|
1,1,0.25|
1,2,9.2|
1,3,2.2|
1,4,6.6|
1,5,2.7|
1,6,7.2|
1,7,8.6|
2,0,3.5|
2,1,0.31|
2,2,2.5|
2,3,9.3|
2,4,5.8|
2,5,8.7|
2,6,5.4|
2,7,6.3|
3,0,6.9|
3,1,7.2|
3,2,3|
3,3,6.9|
3,4,4.1|
3,5,0.19|
3,6,8.8|
3,7,7.4|
4,0,0.38|
4,1,3.1|
4,2,0.49|
4,3,7.2|
4,4,0.031|
4,5,4.6|
4,6,5.6|
4,7,4.5|
5,0,9.6|
5,1,8|
5,2,0.66|
5,3,6.8|
5,4,7.7|
5,5,8.2|
5,6,8|
5,7,6.6|
6,0,9.6|
6,1,3.9|
6,2,4.5|
6,3,6.1|
6,4,4.6|
6,5,8.4|
6,6,7|
6,7,7.9|
7,0,5.5|
7,1,6.2|
7,2,5.5|
7,3,0.12|
7,4,4.5|
7,5,9.5|
7,6,1|
7,7,5.7|
];
constraint_x8_y8=[
0,0,2.3|
0,1,6.2|
0,2,3.3|
0,3,8.8|
0,4,9.3|
0,5,0.88|
0,6,4.9|
0,7,4.1|
1,0,0.27|
1,1,9.1|
1,2,2.4|
1,3,2.6|
1,4,7.8|
1,5,7.6|
1,6,3.3|
1,7,0.7|
2,0,3.3|
2,1,9.6|
2,2,4.3|
2,3,2.3|
2,4,0.65|
2,5,1.9|
2,6,8.3|
2,7,0.71|
3,0,8.9|
3,1,1.2|
3,2,7.5|
3,3,3.1|
3,4,8.5|
3,5,0.47|
3,6,0.3|
3,7,4.9|
4,0,7.6|
4,1,8.9|
4,2,1.6|
4,3,5.3|
4,4,3.3|
4,5,0.24|
4,6,7.1|
4,7,4.8|
5,0,5.9|
5,1,1.5|
5,2,0.53|
5,3,8.6|
5,4,5.4|
5,5,8.3|
5,6,6.4|
5,7,7.2|
6,0,9.2|
6,1,0.88|
6,2,0.37|
6,3,7.6|
6,4,8.4|
6,5,2.8|
6,6,8.8|
6,7,3.4|
7,0,0.97|
7,1,5.2|
7,2,6.4|
7,3,5.2|
7,4,3.4|
7,5,6|
7,6,5.9|
7,7,8.1|
];
initial_distribution_y1=[0.0082,0.074,0.081,0.21,0.071,0.12,0.24,0.19];
initial_distribution_y2=[0.083,0.15,0.15,0.11,0.077,0.0052,0.22,0.2];
initial_distribution_y3=[0.1,0.15,0.063,0.044,0.22,0.16,0.25,0.017];
initial_distribution_y4=[0.081,0.13,0.11,0.15,0.15,0.11,0.092,0.17];
initial_distribution_y5=[0.05,0.082,0.26,0.057,0.14,0.086,0.006,0.32];
initial_distribution_y6=[0.039,0.34,0.0079,0.049,0.4,0.083,0.067,0.014];
initial_distribution_y7=[0.22,0.2,0.017,0.087,0.068,0.045,0.31,0.048];
initial_distribution_y8=[0.17,0.15,0.09,0.14,0.045,0.18,0.11,0.11];
transition_y1=[
0.21,0.13,0.15,0.12,0.038,0.13,0.029,0.19|
0.21,0.092,0.011,0.2,0.0029,0.17,0.2,0.12|
0.15,0.043,0.065,0.027,0.23,0.25,0.034,0.2|
0.14,0.23,0.04,0.073,0.11,0.17,0.17,0.069|
0.23,0.23,0.13,0.034,0.1,0.026,0.073,0.19|
0.11,0.15,0.18,0.17,0.042,0.071,0.17,0.1|
0.014,0.15,0.017,0.21,0.17,0.21,0.22,0.0085|
0.13,0.067,0.15,0.18,0.089,0.13,0.07,0.17|
];
transition_y2=[
0.09,0.18,0.06,0.096,0.11,0.11,0.16,0.2|
0.012,0.078,0.2,0.12,0.2,0.068,0.13,0.2|
0.15,0.039,0.18,0.18,0.17,0.053,0.058,0.17|
0.15,0.18,0.17,0.016,0.033,0.073,0.17,0.21|
0.17,0.13,0.15,0.09,0.088,0.051,0.12,0.19|
0.042,0.1,0.2,0.071,0.23,0.17,0.083,0.1|
0.19,0.15,0.13,0.12,0.14,0.063,0.16,0.048|
0.017,0.056,0.13,0.13,0.17,0.18,0.16,0.15|
];
transition_y3=[
0.21,0.09,0.15,0.16,0.21,0.035,0.1,0.042|
0.15,0.11,0.0046,0.21,0.22,0.055,0.04,0.21|
0.076,0.066,0.14,0.13,0.19,0.14,0.11,0.14|
0.13,0.11,0.072,0.054,0.28,0.22,0.011,0.12|
0.038,0.12,0.17,0.061,0.22,0.12,0.23,0.049|
0.082,0.096,0.16,0.15,0.1,0.074,0.15,0.18|
0.068,0.21,0.21,0.16,0.03,0.041,0.068,0.21|
0.24,0.0043,0.22,0.048,0.12,0.18,0.053,0.13|
];
transition_y4=[
0.17,0.16,0.013,0.11,0.034,0.18,0.24,0.1|
0.19,0.061,0.033,0.25,0.086,0.17,0.12,0.085|
0.17,0.09,0.2,0.18,0.041,0.21,0.099,0.0037|
0.081,0.028,0.2,0.12,0.13,0.11,0.15,0.17|
0.11,0.17,0.034,0.057,0.13,0.089,0.26,0.15|
0.067,0.17,0.079,0.17,0.059,0.18,0.1,0.17|
0.13,0.21,0.0099,0.096,0.15,0.038,0.27,0.099|
0.19,0.17,0.19,0.0071,0.17,0.1,0.083,0.083|
];
transition_y5=[
0.1,0.076,0.14,0.22,0.086,0.033,0.15,0.19|
0.28,0.085,0.029,0.13,0.16,0.16,0.086,0.068|
0.046,0.094,0.048,0.19,0.017,0.17,0.22,0.21|
0.19,0.18,0.091,0.091,0.13,0.12,0.0092,0.19|
0.14,0.17,0.05,0.077,0.068,0.18,0.11,0.2|
0.016,0.2,0.078,0.22,0.0038,0.18,0.15,0.14|
0.042,0.091,0.23,0.032,0.32,0.016,0.014,0.25|
0.074,0.029,0.18,0.072,0.15,0.21,0.13,0.16|
];
transition_y6=[
0.015,0.16,0.14,0.024,0.18,0.2,0.23,0.049|
0.13,0.12,0.17,0.11,0.0073,0.16,0.2,0.11|
0.16,0.02,0.21,0.022,0.25,0.033,0.17,0.14|
0.057,0.14,0.066,0.08,0.19,0.19,0.17,0.11|
0.12,0.23,0.15,0.029,0.14,0.13,0.061,0.15|
0.13,0.18,0.062,0.13,0.24,0.12,0.084,0.056|
0.094,0.16,0.08,0.047,0.21,0.049,0.21,0.16|
0.025,0.051,0.061,0.031,0.27,0.17,0.25,0.14|
];
transition_y7=[
0.079,0.13,0.19,0.18,0.065,0.03,0.15,0.19|
0.037,0.095,0.035,0.22,0.19,0.12,0.1,0.21|
0.23,0.13,0.19,0.055,0.15,0.2,0.0039,0.037|
0.18,0.19,0.095,0.13,0.077,0.18,0.12,0.031|
0.18,0.29,0.13,0.077,0.036,0.17,0.06,0.063|
0.047,0.11,0.053,0.16,0.14,0.11,0.22,0.16|
0.14,0.15,0.1,0.063,0.18,0.077,0.18,0.11|
0.13,0.18,0.14,0.13,0.19,0.089,0.064,0.083|
];
transition_y8=[
0.22,0.078,0.032,0.19,0.047,0.087,0.21,0.14|
0.17,0.16,0.036,0.18,0.15,0.13,0.17,0.0054|
0.2,0.014,0.11,0.21,0.21,0.06,0.18,0.025|
0.2,0.13,0.03,0.19,0.085,0.12,0.19,0.054|
0.019,0.053,0.16,0.2,0.057,0.03,0.27,0.2|
0.1,0.14,0.077,0.033,0.2,0.095,0.19,0.16|
0.099,0.12,0.18,0.068,0.036,0.12,0.19,0.19|
0.092,0.11,0.19,0.18,0.027,0.15,0.19,0.062|
];
